NAME : C101_40_08.569.tour
COMMENT : Cost = 0_569
COMMENT : Found by LKH [Keld Helsgaun] Thu Apr 27 22:39:26 2017
TYPE : TOUR
DIMENSION : 48
TOUR_SECTION
1
21
23
26
27
24
45
25
37
40
39
38
36
43
41
32
33
28
22
42
29
31
30
35
34
47
2
3
5
4
6
44
11
12
9
10
7
8
48
20
17
16
46
13
15
19
18
14
-1
EOF
